NAME : Unnamed.752.tour
COMMENT : Length = 752
COMMENT : Found by LKH [Keld Helsgaun] Wed Oct 22 13:40:40 2014
TYPE : TOUR
DIMENSION : 95
TOUR_SECTION
1
2
3
13
12
14
16
15
11
10
72
73
74
75
90
85
91
87
93
89
83
7
6
94
84
92
78
36
56
81
80
76
86
88
82
79
26
58
45
60
55
50
31
51
20
22
43
27
63
23
59
57
42
53
67
66
29
37
24
18
21
62
65
54
19
47
25
34
35
28
17
40
52
46
69
32
71
49
70
39
64
38
33
48
61
30
44
41
68
77
5
4
8
9
95
-1
EOF
